(set-logic ALL)
(declare-fun var0 () String)
(assert (str.in_re var0 (re.++ (re.union (re.* (str.to_re "0")) (re.* (str.to_re "111"))) (re.++ (re.union (re.* (str.to_re "2")) (re.* (str.to_re "333"))) (re.++ (re.* (re.+ (str.to_re "444"))) (re.++ (re.* (re.union (str.to_re "5") (str.to_re "6"))) (re.++ (re.+ (re.union (str.to_re "777") (str.to_re "8"))) (re.++ (re.+ (re.union (str.to_re "999") (str.to_re "aa"))) (re.++ (re.union (re.union (str.to_re "bbb") (str.to_re "cc")) (re.union (str.to_re "dd") (str.to_re "eee"))) (re.++ (re.* (re.* (str.to_re "f"))) (re.++ (re.union (re.+ (str.to_re "gg")) (re.+ (str.to_re "h"))) (re.union (re.* (str.to_re "i")) (re.* (str.to_re "jj"))))))))))))))
(assert (<= 326 (str.len var0)))
(check-sat)